# 66775
param n := 30;
param s := 1;
set E :=  (0,17) (1,6) (1,10) (2,18) (2,27) (3,24) (4,18) (4,19) (5,11) (5,15) (5,28) (6,11) (7,17) (8,10) (8,14) (9,29) (11,16) (12,14) (13,19) (15,21) (17,28) (18,20) (18,28) (21,26) (22,25) (22,27) (22,29) (23,28) (24,28);
